c 
c G(k,n,p) graph
c graph gen seed     : 17670
c number of vertices : 30
c max number of edges: 500
c number of classes  : 2
c edge density       : 0.400000
c edge probability   : 0.800000
c data structure     : sparse
c
c           Graph Stats
c number of vertices  : 30
c nonisolated vertices: 30
c number of edges     : 183
c edge density        : 0.420690
c max degree          : 15
c avg degree          : 12.20
c min degree          : 9
p col 30 183
e 1 30
e 1 29
e 1 27
e 1 25
e 1 24
e 1 20
e 1 19
e 1 15
e 1 13
e 1 10
e 1 5
e 1 2
e 2 28
e 2 23
e 2 21
e 2 18
e 2 16
e 2 14
e 2 12
e 2 11
e 2 8
e 2 7
e 2 6
e 3 30
e 3 29
e 3 27
e 3 24
e 3 20
e 3 19
e 3 17
e 3 15
e 3 10
e 3 5
e 3 4
e 4 26
e 4 23
e 4 21
e 4 18
e 4 16
e 4 14
e 4 12
e 4 11
e 4 9
e 4 6
e 5 28
e 5 26
e 5 23
e 5 22
e 5 21
e 5 18
e 5 16
e 5 14
e 5 12
e 5 11
e 5 8
e 5 7
e 5 6
e 6 30
e 6 29
e 6 27
e 6 25
e 6 24
e 6 20
e 6 17
e 6 15
e 6 13
e 6 10
e 7 30
e 7 29
e 7 27
e 7 24
e 7 20
e 7 19
e 7 17
e 7 15
e 7 13
e 7 10
e 8 30
e 8 29
e 8 27
e 8 25
e 8 24
e 8 17
e 8 15
e 8 13
e 8 10
e 9 30
e 9 29
e 9 27
e 9 25
e 9 24
e 9 20
e 9 19
e 9 17
e 9 15
e 9 13
e 9 10
e 10 26
e 10 23
e 10 22
e 10 21
e 10 18
e 10 12
e 10 11
e 11 30
e 11 27
e 11 25
e 11 24
e 11 20
e 11 19
e 11 15
e 11 13
e 12 30
e 12 29
e 12 27
e 12 25
e 12 24
e 12 20
e 12 19
e 12 17
e 12 15
e 13 28
e 13 26
e 13 22
e 13 21
e 13 18
e 13 16
e 13 14
e 14 29
e 14 27
e 14 25
e 14 19
e 14 17
e 15 26
e 15 23
e 15 22
e 15 21
e 15 18
e 15 16
e 16 30
e 16 29
e 16 27
e 16 25
e 16 24
e 16 20
e 16 19
e 17 28
e 17 26
e 17 22
e 17 18
e 18 30
e 18 29
e 18 27
e 18 25
e 18 20
e 19 28
e 19 26
e 19 23
e 19 21
e 20 26
e 20 23
e 20 22
e 20 21
e 21 30
e 21 29
e 21 25
e 21 24
e 22 30
e 22 29
e 22 27
e 22 25
e 23 30
e 23 29
e 23 27
e 23 25
e 23 24
e 24 28
e 25 26
e 26 30
e 26 27
e 27 28
e 28 30
e 28 29
